6 48 4 10
18 19 10 3 8 3 10 16 6 8 7 10 8 13 1 5 7 19 20 20 20 20 20 2 6 7 12 19 9 15 7 9 19 12 12 14 14 11 9 10 18 16 20 3 15 15 7 1 
5.23 2.16 1.72 5.98 13.78 13.49 13.71 5.58 7.12 5.68 7.3 6.65 2.4 10.99 8.59 12.97 14.34 9.77 2.26 6.73 4.35 2.1 11.27 6.3 15.6 6.47 15.05 0.48 4.15 5.44 15.74 8.69 4.83 4.5 15.87 8.56 5.08 4.74 5.01 12.9 0.42 3.24 11.79 9.72 15.85 1.03 2.62 5.04 
13.68 0.72 6.68 12.18 9.84 7.97 14.18 5.27 0.62 10.18 9.6 6.22 11.94 1.82 15.34 0.29 13.69 11.04 8.97 9.73 14.36 8.89 7.76 14.47 0.26 14.42 3.19 12.81 10.27 0.15 1.74 2.78 2.28 7.44 0.13 15.61 1.52 1.39 1 1.3 3.03 5.51 2.19 5.72 8.51 8.13 9.08 8.16 
2.43 4.59 13.54 7.05 12.15 5.32 13.95 6.37 15.71 11.14 14.02 12.87 15.14 3.43 1.13 11.02 2.17 15.16 1.67 4.36 11 9.27 5.47 10.65 0.54 7.83 9.19 4.1 15.54 2.88 5.83 14.92 13.69 7.15 9.4 15.52 14.63 5.51 4.97 11.16 5.67 5.28 0.44 2.59 5.31 13.65 5.68 0.45 
4 4.59 1.16 3.4 3.88 15.76 1.12 6.61 3.41 15.53 4.57 15.31 9 5.36 4.51 14.42 9.94 11.18 6.86 9.26 0.62 14.12 0.53 0.33 5.79 12.97 11.72 13.57 3.04 9.47 12.76 1.31 0.31 5.41 13.91 12.17 5.13 12.02 2.97 4.07 13.47 0.29 9.69 0.18 6.17 2.79 0.25 3.97 
8 8 8 8 8 8 8 8 8 8 8 8 8 8 8 8 8 8 8 8 8 8 8 8 8 8 8 8 8 8 8 8 8 8 8 8 8 8 8 8 8 8 8 8 8 8 8 8 
10.23 7.44 8.47 15.74 7.6 12.37 8.61 12.48 1.37 10.16 8.74 12.58 7.27 7.5 1.32 13.81 11.25 1.37 0.79 14.41 7.77 8.68 1.5 15.45 13.92 3.82 10.35 0.51 6.95 1.89 11.86 14.08 6.6 9.04 7.79 14.29 3.5 0.07 2.86 3.28 2.38 15.37 3.77 3.42 10.22 12.26 2.91 0.54 
1 1 1 1 1 1 1 1 1 1 1 1 1 1 1 1 1 1 1 1 1 1 1 1 1 1 1 1 1 1 1 1 1 1 1 1 1 1 1 1 1 1 1 1 1 1 1 1 
1 1 1 1 1 1 1 1 1 1 1 1 1 1 1 1 1 1 1 1 1 1 1 1 1 1 1 1 1 1 1 1 1 1 1 1 1 1 1 1 1 1 1 1 1 1 1 1 
1 1 1 1 1 1 1 1 1 1 1 1 1 1 1 1 1 1 1 1 1 1 1 1 1 1 1 1 1 1 1 1 1 1 1 1 1 1 1 1 1 1 1 1 1 1 1 1 
1 1 1 1 1 1 1 1 1 1 1 1 1 1 1 1 1 1 1 1 1 1 1 1 1 1 1 1 1 1 1 1 1 1 1 1 1 1 1 1 1 1 1 1 1 1 1 1 
1 1 1 1 1 1 1 1 1 1 1 1 1 1 1 1 1 1 1 1 1 1 1 1 1 1 1 1 1 1 1 1 1 1 1 1 1 1 1 1 1 1 1 1 1 1 1 1 
1 1 1 1 1 1 1 1 1 1 1 1 1 1 1 1 1 1 1 1 1 1 1 1 1 1 1 1 1 1 1 1 1 1 1 1 1 1 1 1 1 1 1 1 1 1 1 1 
0.01 0.01 0.01 0.01 0.01 0.01 0.01 0.01 0.01 0.01 0.01 0.01 0.01 0.01 0.01 0.01 0.01 0.01 0.01 0.01 0.01 0.01 0.01 0.01 0.01 0.01 0.01 0.01 0.01 0.01 0.01 0.01 0.01 0.01 0.01 0.01 0.01 0.01 0.01 0.01 0.01 0.01 0.01 0.01 0.01 0.01 0.01 0.01 
0.02 0.02 0.02 0.02 0.02 0.02 0.02 0.02 0.02 0.02 0.02 0.02 0.02 0.02 0.02 0.02 0.02 0.02 0.02 0.02 0.02 0.02 0.02 0.02 0.02 0.02 0.02 0.02 0.02 0.02 0.02 0.02 0.02 0.02 0.02 0.02 0.02 0.02 0.02 0.02 0.02 0.02 0.02 0.02 0.02 0.02 0.02 0.02 
0.03 0.03 0.03 0.03 0.03 0.03 0.03 0.03 0.03 0.03 0.03 0.03 0.03 0.03 0.03 0.03 0.03 0.03 0.03 0.03 0.03 0.03 0.03 0.03 0.03 0.03 0.03 0.03 0.03 0.03 0.03 0.03 0.03 0.03 0.03 0.03 0.03 0.03 0.03 0.03 0.03 0.03 0.03 0.03 0.03 0.03 0.03 0.03 
0.04 0.04 0.04 0.04 0.04 0.04 0.04 0.04 0.04 0.04 0.04 0.04 0.04 0.04 0.04 0.04 0.04 0.04 0.04 0.04 0.04 0.04 0.04 0.04 0.04 0.04 0.04 0.04 0.04 0.04 0.04 0.04 0.04 0.04 0.04 0.04 0.04 0.04 0.04 0.04 0.04 0.04 0.04 0.04 0.04 0.04 0.04 0.04 
0.05 0.05 0.05 0.05 0.05 0.05 0.05 0.05 0.05 0.05 0.05 0.05 0.05 0.05 0.05 0.05 0.05 0.05 0.05 0.05 0.05 0.05 0.05 0.05 0.05 0.05 0.05 0.05 0.05 0.05 0.05 0.05 0.05 0.05 0.05 0.05 0.05 0.05 0.05 0.05 0.05 0.05 0.05 0.05 0.05 0.05 0.05 0.05 
1 1 1 1 1 1 1 1 1 1 1 1 1 1 1 1 1 1 1 1 1 1 1 1 1 1 1 1 1 1 1 1 1 1 1 1 1 1 1 1 1 1 1 1 1 1 1 1 
